Read MPS format model from file dat/rmp/env-diss_32928_14.mps
Reading time = 0.70 seconds
: 33013 rows, 123892 columns, 1514192 nonzeros
Gurobi Optimizer version 9.0.0 build v9.0.0rc2 (linux64)
Optimize a model with 33013 rows, 123892 columns and 1514192 nonzeros
Model fingerprint: 0xa961281a
Coefficient statistics:
  Matrix range     [1e-08, 2e+00]
  Objective range  [1e-04, 1e+04]
  Bounds range     [0e+00, 0e+00]
  RHS range        [1e-01, 8e+01]
Ordering time: 0.00s

Barrier statistics:
 AA' NZ     : 3.955e+05
 Factor NZ  : 4.296e+05 (roughly 70 MBytes of memory)
 Factor Ops : 5.600e+06 (less than 1 second per iteration)
 Threads    : 1

                  Objective                Residual
Iter       Primal          Dual         Primal    Dual     Compl     Time
   0   6.63425928e+07  0.00000000e+00  9.11e+05 8.00e+02  1.51e+05     0s
   1   6.90613471e+06 -9.80272217e+07  8.31e+04 1.22e+03  1.47e+04     0s
   2   8.31371578e+05 -1.07019711e+08  8.60e+03 7.28e+02  2.44e+03     0s
   3   1.71190885e+05 -8.66776672e+07  6.70e+02 4.70e+02  9.59e+02     1s
   4   1.27287469e+05 -7.85477678e+06  3.94e+00 1.48e+01  7.04e+01     1s
   5   5.12629247e+04 -1.55866315e+06  5.20e-07 2.38e+00  1.39e+01     1s
   6   1.00486281e+04 -4.99285698e+05  2.92e-07 6.37e-01  4.33e+00     1s
   7   2.03080020e+02 -2.14065374e+05  1.68e-07 2.34e-01  1.81e+00     1s
   8  -8.72712792e+03 -5.26918075e+04  4.38e-08 3.00e-02  3.65e-01     1s
   9  -1.68837439e+04 -3.28367254e+04  1.24e-09 1.04e-02  1.32e-01     1s
  10  -1.87391841e+04 -2.51880144e+04  3.03e-10 3.71e-03  5.33e-02     1s
  11  -1.88995703e+04 -2.42608539e+04  7.39e-10 2.99e-03  4.43e-02     1s
  12  -2.00955097e+04 -2.19577255e+04  7.89e-10 1.08e-03  1.54e-02     1s
  13  -2.03390656e+04 -2.18815154e+04  1.42e-09 1.02e-03  1.28e-02     1s
  14  -2.05509870e+04 -2.10240078e+04  3.59e-10 2.13e-04  3.89e-03     1s
  15  -2.05618930e+04 -2.09407748e+04  2.89e-10 1.31e-04  3.10e-03     2s
  16  -2.07830082e+04 -2.08156568e+04  2.04e-09 1.18e-05  2.68e-04     2s
  17  -2.07980096e+04 -2.08005411e+04  5.83e-09 4.45e-07  2.06e-05     2s
  18  -2.07992585e+04 -2.07995111e+04  8.85e-10 7.28e-08  2.07e-06     2s
  19  -2.07992957e+04 -2.07993547e+04  9.03e-10 1.78e-08  4.83e-07     2s
  20  -2.07993022e+04 -2.07993155e+04  4.31e-10 4.21e-09  1.09e-07     2s
  21  -2.07993029e+04 -2.07993045e+04  5.73e-10 4.53e-10  1.31e-08     2s
  22  -2.07993030e+04 -2.07993031e+04  5.14e-10 2.07e-11  8.02e-10     2s

Barrier solved model in 22 iterations and 2.05 seconds
Optimal objective -2.07993030e+04

Solve time: 2.058111981
Barrier iterations: 22
